(set-logic QF_S)
(declare-fun var_0xINPUT_150829 () String)
(assert (and (= (len var_0xINPUT_150829) 0) (= (len var_0xINPUT_150829) 0) (not (= var_0xINPUT_150829 "ND6MEXdqBD"))))
(check-sat var_0xINPUT_150829)